words_hard_train/4316.qaiger
aag 148 24 0 1 124
2
4
8
16
28
36
52
70
76
90
96
104
134
142
164
176
184
206
216
224
244
254
258
278
297
6 2 4
10 4 8
12 5 9
14 11 13
18 15 17
20 14 16
22 19 21
24 6 22
26 25 21
30 13 28
32 12 29
34 31 33
38 35 37
40 34 36
42 39 41
44 26 43
46 27 42
48 45 47
50 48 36
54 50 52
56 7 2
58 7 23
60 59 25
62 60 16
64 57 63
66 64 51
68 55 67
72 63 71
74 62 70
78 56 76
80 75 79
82 73 81
84 51 53
86 82 85
88 68 87
92 89 90
94 47 41
98 33 96
100 32 97
102 99 101
106 103 105
108 102 104
110 107 109
112 94 111
114 113 104
116 95 110
118 114 117
120 67 118
122 66 119
124 121 123
126 93 124
128 88 91
130 127 129
132 117 109
136 101 134
138 100 135
140 137 139
144 141 143
146 140 142
148 145 147
150 132 149
152 151 142
154 133 148
156 152 155
158 123 156
160 122 157
162 159 161
166 162 165
168 130 167
170 163 164
172 169 171
174 155 147
178 139 176
180 138 177
182 179 181
186 183 185
188 182 184
190 187 189
192 175 190
194 174 191
196 193 195
198 196 184
200 161 198
202 160 199
204 201 203
208 204 207
210 173 209
212 205 206
214 211 213
218 181 216
220 180 217
222 219 221
226 222 224
228 193 189
230 227 229
232 223 224
234 233 228
236 231 235
238 236 203
240 237 202
242 239 241
246 242 245
248 215 247
250 243 244
252 249 251
256 252 254
260 221 259
262 220 258
264 261 263
266 227 228
268 223 225
270 267 269
272 264 271
274 265 270
276 273 275
280 277 278
282 257 281
284 282 241
286 280 240
288 287 255
290 289 257
292 252 287
294 291 293
296 285 295
i0 1 x1[0]
i1 2 y1[0]
i2 2 y1[1]
i3 1 x1[1]
i4 2 y1[2]
i5 1 x1[2]
i6 1 x2[2]
i7 1 x2[1]
i8 1 x2[0]
i9 1 x2[3]
i10 2 y1[3]
i11 1 x1[3]
i12 2 y1[4]
i13 1 x1[4]
i14 1 x2[4]
i15 2 y1[5]
i16 1 x1[5]
i17 1 x2[5]
i18 2 y1[6]
i19 1 x1[6]
i20 1 x2[6]
i21 1 x2[7]
i22 2 y1[7]
i23 1 x1[7]
o0 bv[0]
c
simplified
  >
    and
      subtract
        1 x1
        2 y1
      1 x1
    invert
      1 x2
