words_hard_train/4316.qaiger.qdimacs
p cnf 148 373
a 1 35 38 71 8 103 122 139 45 112 18 82 52 26 92 127 0
e 2 3 4 5 6 7 9 10 11 12 13 14 15 16 17 19 20 21 22 23 24 25 27 28 29 30 31 32 33 34 36 37 39 40 41 42 43 44 46 47 48 49 50 51 53 54 55 56 57 58 59 60 61 62 63 64 65 66 67 68 69 70 72 73 74 75 76 77 78 79 80 81 83 84 85 86 87 88 89 90 91 93 94 95 96 97 98 99 100 101 102 104 105 106 107 108 109 110 111 113 114 115 116 117 118 119 120 121 123 124 125 126 128 129 130 131 132 133 134 135 136 137 138 140 141 142 143 144 145 146 147 148 0
-1 -2 3 0
1 -3 0
2 -3 0
-2 -4 5 0
2 -5 0
4 -5 0
2 4 6 0
-2 -6 0
-4 -6 0
5 6 7 0
-5 -7 0
-6 -7 0
7 8 9 0
-7 -9 0
-8 -9 0
-7 -8 10 0
7 -10 0
8 -10 0
9 10 11 0
-9 -11 0
-10 -11 0
-3 -11 12 0
3 -12 0
11 -12 0
12 10 13 0
-12 -13 0
-10 -13 0
6 -14 15 0
-6 -15 0
14 -15 0
-6 14 16 0
6 -16 0
-14 -16 0
15 16 17 0
-15 -17 0
-16 -17 0
17 18 19 0
-17 -19 0
-18 -19 0
-17 -18 20 0
17 -20 0
18 -20 0
19 20 21 0
-19 -21 0
-20 -21 0
-13 21 22 0
13 -22 0
-21 -22 0
13 -21 23 0
-13 -23 0
21 -23 0
22 23 24 0
-22 -24 0
-23 -24 0
-24 -18 25 0
24 -25 0
18 -25 0
-25 -26 27 0
25 -27 0
26 -27 0
3 -1 28 0
-3 -28 0
1 -28 0
3 11 29 0
-3 -29 0
-11 -29 0
29 12 30 0
-29 -30 0
-12 -30 0
-30 -8 31 0
30 -31 0
8 -31 0
28 31 32 0
-28 -32 0
-31 -32 0
-32 25 33 0
32 -33 0
-25 -33 0
27 33 34 0
-27 -34 0
-33 -34 0
31 35 36 0
-31 -36 0
-35 -36 0
-31 -35 37 0
31 -37 0
35 -37 0
-28 -38 39 0
28 -39 0
38 -39 0
37 39 40 0
-37 -40 0
-39 -40 0
36 40 41 0
-36 -41 0
-40 -41 0
25 26 42 0
-25 -42 0
-26 -42 0
-41 42 43 0
41 -43 0
-42 -43 0
-34 43 44 0
34 -44 0
-43 -44 0
44 -45 46 0
-44 -46 0
45 -46 0
23 20 47 0
-23 -47 0
-20 -47 0
16 -48 49 0
-16 -49 0
48 -49 0
-16 48 50 0
16 -50 0
-48 -50 0
49 50 51 0
-49 -51 0
-50 -51 0
51 52 53 0
-51 -53 0
-52 -53 0
-51 -52 54 0
51 -54 0
52 -54 0
53 54 55 0
-53 -55 0
-54 -55 0
-47 55 56 0
47 -56 0
-55 -56 0
56 -52 57 0
-56 -57 0
52 -57 0
47 -55 58 0
-47 -58 0
55 -58 0
-57 58 59 0
57 -59 0
-58 -59 0
33 -59 60 0
-33 -60 0
59 -60 0
-33 59 61 0
33 -61 0
-59 -61 0
60 61 62 0
-60 -62 0
-61 -62 0
46 -62 63 0
-46 -63 0
62 -63 0
-44 45 64 0
44 -64 0
-45 -64 0
63 64 65 0
-63 -65 0
-64 -65 0
58 54 66 0
-58 -66 0
-54 -66 0
50 -67 68 0
-50 -68 0
67 -68 0
-50 67 69 0
50 -69 0
-67 -69 0
68 69 70 0
-68 -70 0
-69 -70 0
70 71 72 0
-70 -72 0
-71 -72 0
-70 -71 73 0
70 -73 0
71 -73 0
72 73 74 0
-72 -74 0
-73 -74 0
-66 74 75 0
66 -75 0
-74 -75 0
75 -71 76 0
-75 -76 0
71 -76 0
66 -74 77 0
-66 -77 0
74 -77 0
-76 77 78 0
76 -78 0
-77 -78 0
61 -78 79 0
-61 -79 0
78 -79 0
-61 78 80 0
61 -80 0
-78 -80 0
79 80 81 0
-79 -81 0
-80 -81 0
-81 82 83 0
81 -83 0
-82 -83 0
-65 83 84 0
65 -84 0
-83 -84 0
81 -82 85 0
-81 -85 0
82 -85 0
84 85 86 0
-84 -86 0
-85 -86 0
77 73 87 0
-77 -87 0
-73 -87 0
69 -88 89 0
-69 -89 0
88 -89 0
-69 88 90 0
69 -90 0
-88 -90 0
89 90 91 0
-89 -91 0
-90 -91 0
91 92 93 0
-91 -93 0
-92 -93 0
-91 -92 94 0
91 -94 0
92 -94 0
93 94 95 0
-93 -95 0
-94 -95 0
87 -95 96 0
-87 -96 0
95 -96 0
-87 95 97 0
87 -97 0
-95 -97 0
96 97 98 0
-96 -98 0
-97 -98 0
-98 -92 99 0
98 -99 0
92 -99 0
80 -99 100 0
-80 -100 0
99 -100 0
-80 99 101 0
80 -101 0
-99 -101 0
100 101 102 0
-100 -102 0
-101 -102 0
-102 103 104 0
102 -104 0
-103 -104 0
86 104 105 0
-86 -105 0
-104 -105 0
102 -103 106 0
-102 -106 0
103 -106 0
105 106 107 0
-105 -107 0
-106 -107 0
90 -108 109 0
-90 -109 0
108 -109 0
-90 108 110 0
90 -110 0
-108 -110 0
109 110 111 0
-109 -111 0
-110 -111 0
-111 -112 113 0
111 -113 0
112 -113 0
96 94 114 0
-96 -114 0
-94 -114 0
113 114 115 0
-113 -115 0
-114 -115 0
111 -112 116 0
-111 -116 0
112 -116 0
116 -114 117 0
-116 -117 0
114 -117 0
115 117 118 0
-115 -118 0
-117 -118 0
-118 101 119 0
118 -119 0
-101 -119 0
118 -101 120 0
-118 -120 0
101 -120 0
119 120 121 0
-119 -121 0
-120 -121 0
-121 122 123 0
121 -123 0
-122 -123 0
107 123 124 0
-107 -124 0
-123 -124 0
121 -122 125 0
-121 -125 0
122 -125 0
124 125 126 0
-124 -126 0
-125 -126 0
-126 -127 128 0
126 -128 0
127 -128 0
110 129 130 0
-110 -130 0
-129 -130 0
-110 -129 131 0
110 -131 0
129 -131 0
130 131 132 0
-130 -132 0
-131 -132 0
113 -114 133 0
-113 -133 0
114 -133 0
111 112 134 0
-111 -134 0
-112 -134 0
133 134 135 0
-133 -135 0
-134 -135 0
-132 135 136 0
132 -136 0
-135 -136 0
132 -135 137 0
-132 -137 0
135 -137 0
136 137 138 0
-136 -138 0
-137 -138 0
138 -139 140 0
-138 -140 0
139 -140 0
128 140 141 0
-128 -141 0
-140 -141 0
-141 120 142 0
141 -142 0
-120 -142 0
-140 -120 143 0
140 -143 0
120 -143 0
143 127 144 0
-143 -144 0
-127 -144 0
144 128 145 0
-144 -145 0
-128 -145 0
-126 143 146 0
126 -146 0
-143 -146 0
145 146 147 0
-145 -147 0
-146 -147 0
142 147 148 0
-142 -148 0
-147 -148 0
-148 0
